CMD:
./solvers/bin/cadical --plain --no-reduce -t 1600 ./data/cnfs//oski15a07b5s/oski15a07b5s.63.cnf

c --- [ banner ] -------------------------------------------------------------
c 
c CaDiCaL SAT Solver
c Copyright (c) 2016-2024
c A. Biere, M. Fleury, N. Froleyks, K. Fazekas, F. Pollitt, T. Faller
c JKU Linz, University of Freiburg, TU Wien
c 
c Version 2.1.3 5296d3d2a9bf48c154ab2acb5e44625776d821bf
c g++ (Gentoo 12.3.1_p20230526 p2) 12.3.1 20230526 -Wall -Wextra -O3 -DNDEBUG
c Sat Aug 9 07:26:21 PDT 2025 Linux cedar2.int.cedar.computecanada.ca 5.14.0-362.24.2.el9_3.x86_64 x86_64
c 
c --- [ limit ] --------------------------------------------------------------
c 
c setting time limit to 1600 seconds real time (due to '-t 1600')
c 
c --- [ parsing input ] ------------------------------------------------------
c 
c reading DIMACS file from './data/cnfs//oski15a07b5s/oski15a07b5s.63.cnf'
c opening file to read './data/cnfs//oski15a07b5s/oski15a07b5s.63.cnf'
c found 'p cnf 7968787 23094565' header
c parsed 23094565 clauses in 3.96 seconds process time
c 
c --- [ options ] ------------------------------------------------------------
c 
c   --compact=false                (different from default 'true')
c   --decompose=false              (different from default 'true')
c   --deduplicate=false            (different from default 'true')
c   --elim=false                   (different from default 'true')
c   --probe=false                  (different from default 'true')
c   --reduce=false                 (different from default 'true')
c   --subsume=false                (different from default 'true')
c   --ternary=false                (different from default 'true')
c   --transred=false               (different from default 'true')
c   --vivify=false                 (different from default 'true')
c 
c --- [ solving ] ------------------------------------------------------------
c 
c time measured in process time since initialization
c 
c  seconds    reductions  redundant   irredundant
c          MB     restarts       trail          variables
c            level   conflicts       glue             remaining
c 
c *  3.96 3543  0 0   0    0    0  0% 0 22573342 6035381 76%
c {  4.14 3555  0 0   0    0    0  0% 0 22573342 6035381 76%
c i  4.35 3555 844 0   6   72   70 26% 2 22573342 6035378 76%
c i  4.35 3555 801 0   6   76   73 26% 2 22573342 6035358 76%
c i  4.39 3555 653 0  13  113  108 25% 2 22573342 6035355 76%
c i  4.41 3555 709 0  14  130  119 26% 3 22573342 6035353 76%
c i  4.73 3555 634 0  50  335  307 26% 5 22573342 6035333 76%
c i  4.73 3555 598 0  50  358  327 25% 5 22573342 6035315 76%
c i  4.75 3555 432 0  54  532  487 25% 4 22573342 6035309 76%
c i  4.75 3555 428 0  54  550  501 25% 4 22573342 6035289 76%
c i  4.99 3555 452 0  67  700  631 25% 4 22573342 6035285 76%
c i  5.09 3555 534 0  69  717  647 25% 4 22573342 6035211 76%
c i  5.10 3555 533 0  69  719  648 25% 4 22573342 6035188 76%
c i  5.10 3555 531 0  69  721  649 25% 4 22573342 6035167 76%
c i  5.24 3556 571 0  73  778  700 25% 4 22573342 6035157 76%
c i  5.24 3556 561 0  73  791  711 25% 4 22573342 6035095 76%
c i  5.24 3556 560 0  73  793  712 25% 4 22573342 6035091 76%
c i  5.24 3556 559 0  73  794  712 25% 4 22573342 6035087 76%
c i  5.24 3556 558 0  73  795  712 25% 4 22573342 6035083 76%
c i  5.24 3556 557 0  73  796  712 25% 4 22573342 6035006 76%
c 
c  seconds     reductions  redundant   irredundant
c          MB      restarts       trail          variables
c             level   conflicts       glue             remaining
c 
c i  5.25 3556 551 0  73  804  719 25% 4 22573342 6035002 76%
c i  5.26 3556 539 0  73  832  746 25% 4 22573342 6034992 76%
c i  5.40 3556 723 0  79  998  899 26% 4 22573342 6034958 76%
c }  5.40 3556 721 0  79 1001  901 26% 4 22573342 6034944 76%
c [  5.40 3556  0 0  79 1001  901  0% 0 22573342 6034944 76%
c O  5.61 3556 4176 0  79 1002  902 30% 1 22573342 6034940 76%
c i  5.63 3556 4179 0  79 1006  905 30% 1 22573342 6034937 76%
c i  5.71 3557 4283 0  79 1019  916 30% 1 22573342 6034921 76%
c i  5.79 3557 4453 0  79 1032  927 31% 1 22573342 6034905 76%
c i  5.88 3558 4631 0  79 1045  938 31% 1 22573342 6034889 76%
c i  5.96 3560 4811 0  79 1058  949 32% 1 22573342 6034873 76%
c i  6.05 3561 4992 0  79 1071  960 32% 1 22573342 6034857 76%
c i  6.14 3562 5174 0  79 1084  971 33% 1 22573342 6034841 76%
c i  6.23 3562 5356 0  79 1097  982 34% 1 22573342 6034825 76%
c i  6.32 3563 5539 0  79 1110  993 34% 1 22573342 6034809 76%
c i  6.41 3565 5721 0  79 1123 1004 35% 1 22573342 6034793 76%
c i  6.49 3566 5904 0  79 1136 1015 35% 1 22573342 6034777 76%
c i  6.59 3567 6087 0  79 1149 1026 36% 1 22573342 6034761 76%
c i  6.67 3567 6270 0  79 1162 1037 37% 1 22573342 6034745 76%
c i  6.75 3568 6452 0  79 1175 1048 37% 1 22573342 6034729 76%
c 
c  seconds      reductions  redundant   irredundant
c          MB       restarts       trail          variables
c             level    conflicts       glue             remaining
c 
c i  6.84 3568 6635 0  79 1188 1059 38% 1 22573342 6034713 76%
c i  6.92 3569 6818 0  79 1201 1070 38% 1 22573342 6034697 76%
c i  7.01 3570 7001 0  79 1214 1081 39% 1 22573342 6034681 76%
c i  7.09 3571 7184 0  79 1227 1092 39% 1 22573342 6034665 76%
... skipped 917012 lines ...
v 7968335 7968336 -7968337 -7968338 -7968339 7968340 7968341 -7968342 -7968343
v 7968344 7968345 -7968346 -7968347 -7968348 7968349 7968350 -7968351 -7968352
v -7968353 7968354 7968355 -7968356 -7968357 7968358 -7968359 -7968360
v -7968361 7968362 -7968363 7968364 7968365 -7968366 -7968367 -7968368
v -7968369 -7968370 7968371 7968372 -7968373 -7968374 7968375 7968376 -7968377
v -7968378 -7968379 7968380 7968381 -7968382 -7968383 7968384 7968385 -7968386
v -7968387 -7968388 7968389 7968390 -7968391 -7968392 7968393 7968394 -7968395
v -7968396 -7968397 7968398 7968399 -7968400 -7968401 7968402 7968403 -7968404
v -7968405 -7968406 7968407 7968408 -7968409 -7968410 7968411 7968412 -7968413
v -7968414 -7968415 7968416 7968417 -7968418 -7968419 7968420 7968421 -7968422
v -7968423 -7968424 7968425 7968426 -7968427 -7968428 7968429 7968430 -7968431
v -7968432 -7968433 7968434 7968435 -7968436 -7968437 -7968438 7968439 7968440
v -7968441 -7968442 7968443 -7968444 -7968445 -7968446 7968447 -7968448
v 7968449 7968450 -7968451 -7968452 -7968453 -7968454 -7968455 7968456 7968457
v -7968458 -7968459 7968460 7968461 -7968462 -7968463 -7968464 7968465 7968466
v -7968467 -7968468 7968469 7968470 -7968471 -7968472 -7968473 7968474 7968475
v -7968476 -7968477 7968478 7968479 -7968480 -7968481 -7968482 7968483 7968484
v -7968485 -7968486 7968487 7968488 -7968489 -7968490 -7968491 7968492 7968493
v -7968494 -7968495 7968496 7968497 -7968498 -7968499 -7968500 7968501 7968502
v -7968503 -7968504 7968505 7968506 -7968507 -7968508 -7968509 7968510 7968511
v -7968512 -7968513 7968514 7968515 -7968516 -7968517 -7968518 7968519 7968520
v -7968521 -7968522 -7968523 7968524 7968525 -7968526 -7968527 7968528
v -7968529 -7968530 -7968531 7968532 -7968533 7968534 7968535 -7968536
v -7968537 7968538 7968539 -7968540 7968541 7968542 -7968543 -7968544 7968545
v 7968546 -7968547 -7968548 -7968549 7968550 7968551 -7968552 -7968553 7968554
v 7968555 -7968556 -7968557 -7968558 7968559 7968560 -7968561 -7968562 7968563
v 7968564 -7968565 -7968566 -7968567 7968568 7968569 -7968570 -7968571 7968572
v 7968573 -7968574 -7968575 -7968576 7968577 7968578 -7968579 -7968580 7968581
v 7968582 -7968583 -7968584 -7968585 7968586 7968587 -7968588 -7968589 7968590
v 7968591 -7968592 -7968593 -7968594 7968595 7968596 -7968597 -7968598 7968599
v 7968600 -7968601 -7968602 -7968603 7968604 7968605 -7968606 -7968607
v -7968608 7968609 -7968610 7968611 -7968612 -7968613 7968614 -7968615
v -7968616 7968617 -7968618 7968619 7968620 -7968621 -7968622 -7968623
v -7968624 -7968625 7968626 7968627 -7968628 -7968629 7968630 7968631 -7968632
v -7968633 -7968634 7968635 7968636 -7968637 -7968638 7968639 7968640 -7968641
v -7968642 -7968643 7968644 7968645 -7968646 -7968647 7968648 7968649 -7968650
v -7968651 -7968652 7968653 7968654 -7968655 -7968656 7968657 7968658 -7968659
v -7968660 -7968661 7968662 7968663 -7968664 -7968665 7968666 7968667 -7968668
v -7968669 -7968670 7968671 7968672 -7968673 -7968674 7968675 7968676 -7968677
v -7968678 -7968679 7968680 7968681 -7968682 -7968683 7968684 7968685 -7968686
v -7968687 -7968688 7968689 7968690 -7968691 -7968692 7968693 -7968694
v -7968695 -7968696 7968697 -7968698 -7968699 7968700 -7968701 -7968702
v -7968703 7968704 7968705 -7968706 -7968707 -7968708 -7968709 -7968710
v 7968711 7968712 -7968713 -7968714 7968715 7968716 -7968717 -7968718 -7968719
v 7968720 7968721 -7968722 -7968723 7968724 7968725 -7968726 -7968727 -7968728
v 7968729 7968730 -7968731 -7968732 7968733 7968734 -7968735 -7968736 -7968737
v 7968738 7968739 -7968740 -7968741 7968742 7968743 -7968744 -7968745 -7968746
v 7968747 7968748 -7968749 -7968750 7968751 7968752 -7968753 -7968754 -7968755
v 7968756 7968757 -7968758 -7968759 7968760 7968761 -7968762 -7968763 -7968764
v -7968765 7968766 -7968767 -7968768 7968769 7968770 -7968771 -7968772 7968773
v -7968774 -7968775 7968776 -7968777 -7968778 -7968779 7968780 -7968781
v -7968782 7968783 -7968784 -7968785 7968786 -7968787 0
c 
c --- [ run-time profiling ] -------------------------------------------------
c 
c process time taken by individual solving procedures
c (percentage relative to process time for solving)
c 
c         7.07  100.00% search
c         5.62   79.58% stable
c         3.96   56.06% parse
c         1.27   17.92% unstable
c         0.18    2.49% lucky
c         0.00    0.00% simplify
c   =================================
c         7.07   61.80% solve
c 
c last line shows process time for solving
c (percentage relative to total process time)
c 
c --- [ statistics ] ---------------------------------------------------------
c 
c chronological:              1170        65.22 %  of conflicts
c conflicts:                  1794       253.90    per second
c decisions:                118213     16730.61    per second
c fixed:                   1934869        24.28 %  of all variables
c learned:                    1675        93.37 %  per conflict
c learned_lits:              11369       100.00 %  learned literals
c minimized:                     0         0.00 %  learned literals
c shrunken:                   1104         9.71 %  learned literals
c minishrunken:                448         3.94 %  learned literals
c otfs:                         70         3.90 %  of conflict
c propagations:           21822208         3.09 M  per second
c rephased:                      1      1794.00    interval
c restarts:                     79        22.71    interval
c stabilizing:                   1        44.20 %  of conflicts
c subsumed:                     20         0.00 %  of all clauses
c strengthened:                 70         0.00 %  of all clauses
c 
c seconds are measured in process time for solving
c 
c --- [ resources ] ----------------------------------------------------------
c 
c total process time since initialization:        11.43    seconds
c total real time since initialization:           11.64    seconds
c maximum resident set size of process:         3609.37    MB
c 
c --- [ shutting down ] ------------------------------------------------------
c 
c exit 10
